; benchmark generated from python API
(set-info :status unknown)
(declare-fun cell_1_3 () Int)
(declare-fun cell_1_9 () Int)
(declare-fun cell_2_1 () Int)
(declare-fun cell_2_6 () Int)
(declare-fun cell_3_4 () Int)
(declare-fun cell_3_9 () Int)
(declare-fun cell_4_4 () Int)
(declare-fun cell_4_7 () Int)
(declare-fun cell_5_3 () Int)
(declare-fun cell_5_8 () Int)
(declare-fun cell_6_2 () Int)
(declare-fun cell_6_6 () Int)
(declare-fun cell_7_2 () Int)
(declare-fun cell_7_7 () Int)
(declare-fun cell_8_5 () Int)
(declare-fun cell_8_8 () Int)
(declare-fun cell_9_1 () Int)
(declare-fun cell_9_5 () Int)
(declare-fun cell_1_1 () Int)
(declare-fun cell_3_1 () Int)
(declare-fun cell_4_1 () Int)
(declare-fun cell_5_1 () Int)
(declare-fun cell_6_1 () Int)
(declare-fun cell_7_1 () Int)
(declare-fun cell_8_1 () Int)
(declare-fun cell_1_2 () Int)
(declare-fun cell_2_2 () Int)
(declare-fun cell_3_2 () Int)
(declare-fun cell_4_2 () Int)
(declare-fun cell_5_2 () Int)
(declare-fun cell_8_2 () Int)
(declare-fun cell_9_2 () Int)
(declare-fun cell_2_3 () Int)
(declare-fun cell_3_3 () Int)
(declare-fun cell_4_3 () Int)
(declare-fun cell_6_3 () Int)
(declare-fun cell_7_3 () Int)
(declare-fun cell_8_3 () Int)
(declare-fun cell_9_3 () Int)
(declare-fun cell_1_4 () Int)
(declare-fun cell_2_4 () Int)
(declare-fun cell_5_4 () Int)
(declare-fun cell_6_4 () Int)
(declare-fun cell_7_4 () Int)
(declare-fun cell_8_4 () Int)
(declare-fun cell_9_4 () Int)
(declare-fun cell_1_5 () Int)
(declare-fun cell_2_5 () Int)
(declare-fun cell_3_5 () Int)
(declare-fun cell_4_5 () Int)
(declare-fun cell_5_5 () Int)
(declare-fun cell_6_5 () Int)
(declare-fun cell_7_5 () Int)
(declare-fun cell_1_6 () Int)
(declare-fun cell_3_6 () Int)
(declare-fun cell_4_6 () Int)
(declare-fun cell_5_6 () Int)
(declare-fun cell_7_6 () Int)
(declare-fun cell_8_6 () Int)
(declare-fun cell_9_6 () Int)
(declare-fun cell_1_7 () Int)
(declare-fun cell_2_7 () Int)
(declare-fun cell_3_7 () Int)
(declare-fun cell_5_7 () Int)
(declare-fun cell_6_7 () Int)
(declare-fun cell_8_7 () Int)
(declare-fun cell_9_7 () Int)
(declare-fun cell_1_8 () Int)
(declare-fun cell_2_8 () Int)
(declare-fun cell_3_8 () Int)
(declare-fun cell_4_8 () Int)
(declare-fun cell_6_8 () Int)
(declare-fun cell_7_8 () Int)
(declare-fun cell_9_8 () Int)
(declare-fun cell_2_9 () Int)
(declare-fun cell_4_9 () Int)
(declare-fun cell_5_9 () Int)
(declare-fun cell_6_9 () Int)
(declare-fun cell_7_9 () Int)
(declare-fun cell_8_9 () Int)
(declare-fun cell_9_9 () Int)
(assert
 (= cell_1_3 2))
(assert
 (= cell_1_9 1))
(assert
 (= cell_2_1 1))
(assert
 (= cell_2_6 2))
(assert
 (= cell_3_4 1))
(assert
 (= cell_3_9 2))
(assert
 (= cell_4_4 2))
(assert
 (= cell_4_7 1))
(assert
 (= cell_5_3 1))
(assert
 (= cell_5_8 2))
(assert
 (= cell_6_2 2))
(assert
 (= cell_6_6 1))
(assert
 (= cell_7_2 1))
(assert
 (= cell_7_7 2))
(assert
 (= cell_8_5 2))
(assert
 (= cell_8_8 1))
(assert
 (= cell_9_1 2))
(assert
 (= cell_9_5 1))
(assert
 (let (($x1977 (= cell_1_1 9)))
 (let (($x2058 (= cell_1_1 8)))
 (let (($x606 (= cell_1_1 7)))
 (let (($x2883 (= cell_1_1 6)))
 (let (($x3175 (= cell_1_1 5)))
 (let (($x177 (= cell_1_1 4)))
 (let (($x801 (= cell_1_1 3)))
 (let (($x3194 (= cell_1_1 2)))
 (let (($x1527 (= cell_1_1 1)))
 (or $x1527 $x3194 $x801 $x177 $x3175 $x2883 $x606 $x2058 $x1977)))))))))))
(assert
 (let (($x2461 (= cell_2_1 1)))
 (or $x2461 (= cell_2_1 2) (= cell_2_1 3) (= cell_2_1 4) (= cell_2_1 5) (= cell_2_1 6) (= cell_2_1 7) (= cell_2_1 8) (= cell_2_1 9))))
(assert
 (let (($x4238 (= cell_3_1 9)))
 (let (($x2299 (= cell_3_1 8)))
 (let (($x2952 (= cell_3_1 7)))
 (let (($x2125 (= cell_3_1 6)))
 (let (($x2704 (= cell_3_1 5)))
 (let (($x3107 (= cell_3_1 4)))
 (let (($x561 (= cell_3_1 3)))
 (let (($x2337 (= cell_3_1 2)))
 (let (($x3693 (= cell_3_1 1)))
 (or $x3693 $x2337 $x561 $x3107 $x2704 $x2125 $x2952 $x2299 $x4238)))))))))))
(assert
 (let (($x50 (= cell_4_1 9)))
 (let (($x355 (= cell_4_1 8)))
 (let (($x1690 (= cell_4_1 7)))
 (let (($x2703 (= cell_4_1 6)))
 (let (($x3947 (= cell_4_1 5)))
 (let (($x3329 (= cell_4_1 4)))
 (let (($x511 (= cell_4_1 3)))
 (let (($x376 (= cell_4_1 2)))
 (let (($x3782 (= cell_4_1 1)))
 (or $x3782 $x376 $x511 $x3329 $x3947 $x2703 $x1690 $x355 $x50)))))))))))
(assert
 (let (($x2499 (= cell_5_1 9)))
 (let (($x1092 (= cell_5_1 8)))
 (let (($x2007 (= cell_5_1 7)))
 (let (($x2581 (= cell_5_1 6)))
 (let (($x1426 (= cell_5_1 5)))
 (let (($x2000 (= cell_5_1 4)))
 (let (($x7643 (= cell_5_1 3)))
 (let (($x4025 (= cell_5_1 2)))
 (let (($x1651 (= cell_5_1 1)))
 (or $x1651 $x4025 $x7643 $x2000 $x1426 $x2581 $x2007 $x1092 $x2499)))))))))))
(assert
 (let (($x4082 (= cell_6_1 9)))
 (let (($x24 (= cell_6_1 8)))
 (let (($x466 (= cell_6_1 7)))
 (let (($x3919 (= cell_6_1 6)))
 (let (($x2184 (= cell_6_1 5)))
 (let (($x1233 (= cell_6_1 4)))
 (let (($x569 (= cell_6_1 3)))
 (let (($x3887 (= cell_6_1 2)))
 (let (($x2593 (= cell_6_1 1)))
 (or $x2593 $x3887 $x569 $x1233 $x2184 $x3919 $x466 $x24 $x4082)))))))))))
(assert
 (let (($x3236 (= cell_7_1 9)))
 (let (($x1707 (= cell_7_1 8)))
 (let (($x3081 (= cell_7_1 7)))
 (let (($x1642 (= cell_7_1 6)))
 (let (($x911 (= cell_7_1 5)))
 (let (($x1016 (= cell_7_1 4)))
 (let (($x2542 (= cell_7_1 3)))
 (let (($x2547 (= cell_7_1 2)))
 (let (($x380 (= cell_7_1 1)))
 (or $x380 $x2547 $x2542 $x1016 $x911 $x1642 $x3081 $x1707 $x3236)))))))))))
(assert
 (let (($x185 (= cell_8_1 9)))
 (let (($x2243 (= cell_8_1 8)))
 (let (($x170 (= cell_8_1 7)))
 (let (($x1516 (= cell_8_1 6)))
 (let (($x3247 (= cell_8_1 5)))
 (let (($x8015 (= cell_8_1 4)))
 (let (($x3197 (= cell_8_1 3)))
 (let (($x2674 (= cell_8_1 2)))
 (let (($x1434 (= cell_8_1 1)))
 (or $x1434 $x2674 $x3197 $x8015 $x3247 $x1516 $x170 $x2243 $x185)))))))))))
(assert
 (let (($x1552 (= cell_9_1 2)))
 (or (= cell_9_1 1) $x1552 (= cell_9_1 3) (= cell_9_1 4) (= cell_9_1 5) (= cell_9_1 6) (= cell_9_1 7) (= cell_9_1 8) (= cell_9_1 9))))
(assert
 (let (($x3786 (= cell_1_2 9)))
 (let (($x232 (= cell_1_2 8)))
 (let (($x3733 (= cell_1_2 7)))
 (let (($x1530 (= cell_1_2 6)))
 (let (($x2569 (= cell_1_2 5)))
 (let (($x7644 (= cell_1_2 4)))
 (let (($x687 (= cell_1_2 3)))
 (let (($x2598 (= cell_1_2 2)))
 (let (($x1350 (= cell_1_2 1)))
 (or $x1350 $x2598 $x687 $x7644 $x2569 $x1530 $x3733 $x232 $x3786)))))))))))
(assert
 (let (($x2303 (= cell_2_2 9)))
 (let (($x4114 (= cell_2_2 8)))
 (let (($x611 (= cell_2_2 7)))
 (let (($x4009 (= cell_2_2 6)))
 (let (($x4163 (= cell_2_2 5)))
 (let (($x2456 (= cell_2_2 4)))
 (let (($x3510 (= cell_2_2 3)))
 (let (($x4224 (= cell_2_2 2)))
 (let (($x279 (= cell_2_2 1)))
 (or $x279 $x4224 $x3510 $x2456 $x4163 $x4009 $x611 $x4114 $x2303)))))))))))
(assert
 (let (($x783 (= cell_3_2 9)))
 (let (($x2649 (= cell_3_2 8)))
 (let (($x2625 (= cell_3_2 7)))
 (let (($x2399 (= cell_3_2 6)))
 (let (($x3521 (= cell_3_2 5)))
 (let (($x1127 (= cell_3_2 4)))
 (let (($x2692 (= cell_3_2 3)))
 (let (($x3859 (= cell_3_2 2)))
 (let (($x2052 (= cell_3_2 1)))
 (or $x2052 $x3859 $x2692 $x1127 $x3521 $x2399 $x2625 $x2649 $x783)))))))))))
(assert
 (let (($x2934 (= cell_4_2 9)))
 (let (($x4068 (= cell_4_2 8)))
 (let (($x3691 (= cell_4_2 7)))
 (let (($x3079 (= cell_4_2 6)))
 (let (($x497 (= cell_4_2 5)))
 (let (($x1013 (= cell_4_2 4)))
 (let (($x332 (= cell_4_2 3)))
 (let (($x7048 (= cell_4_2 2)))
 (let (($x2275 (= cell_4_2 1)))
 (or $x2275 $x7048 $x332 $x1013 $x497 $x3079 $x3691 $x4068 $x2934)))))))))))
(assert
 (let (($x58 (= cell_5_2 9)))
 (let (($x285 (= cell_5_2 8)))
 (let (($x1904 (= cell_5_2 7)))
 (let (($x2488 (= cell_5_2 6)))
 (let (($x2540 (= cell_5_2 5)))
 (let (($x3136 (= cell_5_2 4)))
 (let (($x3597 (= cell_5_2 3)))
 (let (($x2523 (= cell_5_2 2)))
 (let (($x1807 (= cell_5_2 1)))
 (or $x1807 $x2523 $x3597 $x3136 $x2540 $x2488 $x1904 $x285 $x58)))))))))))
(assert
 (let (($x2131 (= cell_6_2 2)))
 (or (= cell_6_2 1) $x2131 (= cell_6_2 3) (= cell_6_2 4) (= cell_6_2 5) (= cell_6_2 6) (= cell_6_2 7) (= cell_6_2 8) (= cell_6_2 9))))
(assert
 (let (($x828 (= cell_7_2 1)))
 (or $x828 (= cell_7_2 2) (= cell_7_2 3) (= cell_7_2 4) (= cell_7_2 5) (= cell_7_2 6) (= cell_7_2 7) (= cell_7_2 8) (= cell_7_2 9))))
(assert
 (let (($x1094 (= cell_8_2 9)))
 (let (($x7748 (= cell_8_2 8)))
 (let (($x3356 (= cell_8_2 7)))
 (let (($x7770 (= cell_8_2 6)))
 (let (($x1571 (= cell_8_2 5)))
 (let (($x837 (= cell_8_2 4)))
 (let (($x955 (= cell_8_2 3)))
 (let (($x1060 (= cell_8_2 2)))
 (let (($x893 (= cell_8_2 1)))
 (or $x893 $x1060 $x955 $x837 $x1571 $x7770 $x3356 $x7748 $x1094)))))))))))
(assert
 (let (($x2846 (= cell_9_2 9)))
 (let (($x3366 (= cell_9_2 8)))
 (let (($x3591 (= cell_9_2 7)))
 (let (($x3981 (= cell_9_2 6)))
 (let (($x2833 (= cell_9_2 5)))
 (let (($x850 (= cell_9_2 4)))
 (let (($x3666 (= cell_9_2 3)))
 (let (($x1650 (= cell_9_2 2)))
 (let (($x2126 (= cell_9_2 1)))
 (or $x2126 $x1650 $x3666 $x850 $x2833 $x3981 $x3591 $x3366 $x2846)))))))))))
(assert
 (let (($x1879 (= cell_1_3 2)))
 (or (= cell_1_3 1) $x1879 (= cell_1_3 3) (= cell_1_3 4) (= cell_1_3 5) (= cell_1_3 6) (= cell_1_3 7) (= cell_1_3 8) (= cell_1_3 9))))
(assert
 (let (($x1339 (= cell_2_3 9)))
 (let (($x945 (= cell_2_3 8)))
 (let (($x3528 (= cell_2_3 7)))
 (let (($x3292 (= cell_2_3 6)))
 (let (($x1006 (= cell_2_3 5)))
 (let (($x626 (= cell_2_3 4)))
 (let (($x1662 (= cell_2_3 3)))
 (let (($x4228 (= cell_2_3 2)))
 (let (($x1228 (= cell_2_3 1)))
 (or $x1228 $x4228 $x1662 $x626 $x1006 $x3292 $x3528 $x945 $x1339)))))))))))
(assert
 (let (($x630 (= cell_3_3 9)))
 (let (($x815 (= cell_3_3 8)))
 (let (($x1391 (= cell_3_3 7)))
 (let (($x1935 (= cell_3_3 6)))
 (let (($x95 (= cell_3_3 5)))
 (let (($x1419 (= cell_3_3 4)))
 (let (($x500 (= cell_3_3 3)))
 (let (($x1056 (= cell_3_3 2)))
 (let (($x281 (= cell_3_3 1)))
 (or $x281 $x1056 $x500 $x1419 $x95 $x1935 $x1391 $x815 $x630)))))))))))
(assert
 (let (($x1057 (= cell_4_3 9)))
 (let (($x3482 (= cell_4_3 8)))
 (let (($x60 (= cell_4_3 7)))
 (let (($x2576 (= cell_4_3 6)))
 (let (($x3965 (= cell_4_3 5)))
 (let (($x897 (= cell_4_3 4)))
 (let (($x2898 (= cell_4_3 3)))
 (let (($x2028 (= cell_4_3 2)))
 (let (($x1687 (= cell_4_3 1)))
 (or $x1687 $x2028 $x2898 $x897 $x3965 $x2576 $x60 $x3482 $x1057)))))))))))
(assert
 (let (($x1090 (= cell_5_3 1)))
 (or $x1090 (= cell_5_3 2) (= cell_5_3 3) (= cell_5_3 4) (= cell_5_3 5) (= cell_5_3 6) (= cell_5_3 7) (= cell_5_3 8) (= cell_5_3 9))))
(assert
 (let (($x2161 (= cell_6_3 9)))
 (let (($x3302 (= cell_6_3 8)))
 (let (($x578 (= cell_6_3 7)))
 (let (($x1596 (= cell_6_3 6)))
 (let (($x2869 (= cell_6_3 5)))
 (let (($x2678 (= cell_6_3 4)))
 (let (($x924 (= cell_6_3 3)))
 (let (($x2508 (= cell_6_3 2)))
 (let (($x3731 (= cell_6_3 1)))
 (or $x3731 $x2508 $x924 $x2678 $x2869 $x1596 $x578 $x3302 $x2161)))))))))))
(assert
 (let (($x3672 (= cell_7_3 9)))
 (let (($x1122 (= cell_7_3 8)))
 (let (($x2847 (= cell_7_3 7)))
 (let (($x1678 (= cell_7_3 6)))
 (let (($x1245 (= cell_7_3 5)))
 (let (($x3851 (= cell_7_3 4)))
 (let (($x2805 (= cell_7_3 3)))
 (let (($x1582 (= cell_7_3 2)))
 (let (($x1191 (= cell_7_3 1)))
 (or $x1191 $x1582 $x2805 $x3851 $x1245 $x1678 $x2847 $x1122 $x3672)))))))))))
(assert
 (let (($x2089 (= cell_8_3 9)))
 (let (($x565 (= cell_8_3 8)))
 (let (($x3390 (= cell_8_3 7)))
 (let (($x7822 (= cell_8_3 6)))
 (let (($x958 (= cell_8_3 5)))
 (let (($x8008 (= cell_8_3 4)))
 (let (($x3590 (= cell_8_3 3)))
 (let (($x7843 (= cell_8_3 2)))
 (let (($x1047 (= cell_8_3 1)))
 (or $x1047 $x7843 $x3590 $x8008 $x958 $x7822 $x3390 $x565 $x2089)))))))))))
(assert
 (let (($x3453 (= cell_9_3 9)))
 (let (($x1322 (= cell_9_3 8)))
 (let (($x1475 (= cell_9_3 7)))
 (let (($x3264 (= cell_9_3 6)))
 (let (($x2850 (= cell_9_3 5)))
 (let (($x512 (= cell_9_3 4)))
 (let (($x2817 (= cell_9_3 3)))
 (let (($x3886 (= cell_9_3 2)))
 (let (($x7819 (= cell_9_3 1)))
 (or $x7819 $x3886 $x2817 $x512 $x2850 $x3264 $x1475 $x1322 $x3453)))))))))))
(assert
 (let (($x1841 (= cell_1_4 9)))
 (let (($x494 (= cell_1_4 8)))
 (let (($x3567 (= cell_1_4 7)))
 (let (($x2298 (= cell_1_4 6)))
 (let (($x739 (= cell_1_4 5)))
 (let (($x1389 (= cell_1_4 4)))
 (let (($x3355 (= cell_1_4 3)))
 (let (($x2106 (= cell_1_4 2)))
 (let (($x229 (= cell_1_4 1)))
 (or $x229 $x2106 $x3355 $x1389 $x739 $x2298 $x3567 $x494 $x1841)))))))))))
(assert
 (let (($x282 (= cell_2_4 9)))
 (let (($x2151 (= cell_2_4 8)))
 (let (($x1154 (= cell_2_4 7)))
 (let (($x937 (= cell_2_4 6)))
 (let (($x271 (= cell_2_4 5)))
 (let (($x1832 (= cell_2_4 4)))
 (let (($x352 (= cell_2_4 3)))
 (let (($x1195 (= cell_2_4 2)))
 (let (($x1224 (= cell_2_4 1)))
 (or $x1224 $x1195 $x352 $x1832 $x271 $x937 $x1154 $x2151 $x282)))))))))))
(assert
 (let (($x1819 (= cell_3_4 1)))
 (or $x1819 (= cell_3_4 2) (= cell_3_4 3) (= cell_3_4 4) (= cell_3_4 5) (= cell_3_4 6) (= cell_3_4 7) (= cell_3_4 8) (= cell_3_4 9))))
(assert
 (let (($x7634 (= cell_4_4 2)))
 (or (= cell_4_4 1) $x7634 (= cell_4_4 3) (= cell_4_4 4) (= cell_4_4 5) (= cell_4_4 6) (= cell_4_4 7) (= cell_4_4 8) (= cell_4_4 9))))
(assert
 (let (($x3575 (= cell_5_4 9)))
 (let (($x1781 (= cell_5_4 8)))
 (let (($x3238 (= cell_5_4 7)))
 (let (($x1968 (= cell_5_4 6)))
 (let (($x2490 (= cell_5_4 5)))
 (let (($x3943 (= cell_5_4 4)))
 (let (($x868 (= cell_5_4 3)))
 (let (($x2709 (= cell_5_4 2)))
 (let (($x1932 (= cell_5_4 1)))
 (or $x1932 $x2709 $x868 $x3943 $x2490 $x1968 $x3238 $x1781 $x3575)))))))))))
(assert
 (let (($x1337 (= cell_6_4 9)))
 (let (($x1214 (= cell_6_4 8)))
 (let (($x1554 (= cell_6_4 7)))
 (let (($x935 (= cell_6_4 6)))
 (let (($x3845 (= cell_6_4 5)))
 (let (($x1597 (= cell_6_4 4)))
 (let (($x2091 (= cell_6_4 3)))
 (let (($x3860 (= cell_6_4 2)))
 (let (($x1893 (= cell_6_4 1)))
 (or $x1893 $x3860 $x2091 $x1597 $x3845 $x935 $x1554 $x1214 $x1337)))))))))))
(assert
 (let (($x1340 (= cell_7_4 9)))
 (let (($x2589 (= cell_7_4 8)))
 (let (($x1875 (= cell_7_4 7)))
 (let (($x1956 (= cell_7_4 6)))
 (let (($x2383 (= cell_7_4 5)))
 (let (($x3769 (= cell_7_4 4)))
 (let (($x3083 (= cell_7_4 3)))
 (let (($x1594 (= cell_7_4 2)))
 (let (($x481 (= cell_7_4 1)))
 (or $x481 $x1594 $x3083 $x3769 $x2383 $x1956 $x1875 $x2589 $x1340)))))))))))
(assert
 (let (($x4053 (= cell_8_4 9)))
 (let (($x228 (= cell_8_4 8)))
 (let (($x1303 (= cell_8_4 7)))
 (let (($x2716 (= cell_8_4 6)))
 (let (($x7683 (= cell_8_4 5)))
 (let (($x7984 (= cell_8_4 4)))
 (let (($x2160 (= cell_8_4 3)))
 (let (($x1815 (= cell_8_4 2)))
 (let (($x891 (= cell_8_4 1)))
 (or $x891 $x1815 $x2160 $x7984 $x7683 $x2716 $x1303 $x228 $x4053)))))))))))
(assert
 (let (($x292 (= cell_9_4 9)))
 (let (($x3916 (= cell_9_4 8)))
 (let (($x2503 (= cell_9_4 7)))
 (let (($x2693 (= cell_9_4 6)))
 (let (($x381 (= cell_9_4 5)))
 (let (($x3402 (= cell_9_4 4)))
 (let (($x600 (= cell_9_4 3)))
 (let (($x2794 (= cell_9_4 2)))
 (let (($x2557 (= cell_9_4 1)))
 (or $x2557 $x2794 $x600 $x3402 $x381 $x2693 $x2503 $x3916 $x292)))))))))))
(assert
 (let (($x1610 (= cell_1_5 9)))
 (let (($x2355 (= cell_1_5 8)))
 (let (($x3183 (= cell_1_5 7)))
 (let (($x2615 (= cell_1_5 6)))
 (let (($x152 (= cell_1_5 5)))
 (let (($x7875 (= cell_1_5 4)))
 (let (($x2860 (= cell_1_5 3)))
 (let (($x602 (= cell_1_5 2)))
 (let (($x3768 (= cell_1_5 1)))
 (or $x3768 $x602 $x2860 $x7875 $x152 $x2615 $x3183 $x2355 $x1610)))))))))))
(assert
 (let (($x1155 (= cell_2_5 9)))
 (let (($x3373 (= cell_2_5 8)))
 (let (($x2927 (= cell_2_5 7)))
 (let (($x1897 (= cell_2_5 6)))
 (let (($x826 (= cell_2_5 5)))
 (let (($x3709 (= cell_2_5 4)))
 (let (($x3207 (= cell_2_5 3)))
 (let (($x2150 (= cell_2_5 2)))
 (let (($x2470 (= cell_2_5 1)))
 (or $x2470 $x2150 $x3207 $x3709 $x826 $x1897 $x2927 $x3373 $x1155)))))))))))
(assert
 (let (($x3014 (= cell_3_5 9)))
 (let (($x4131 (= cell_3_5 8)))
 (let (($x1287 (= cell_3_5 7)))
 (let (($x413 (= cell_3_5 6)))
 (let (($x1700 (= cell_3_5 5)))
 (let (($x2635 (= cell_3_5 4)))
 (let (($x790 (= cell_3_5 3)))
 (let (($x3273 (= cell_3_5 2)))
 (let (($x3163 (= cell_3_5 1)))
 (or $x3163 $x3273 $x790 $x2635 $x1700 $x413 $x1287 $x4131 $x3014)))))))))))
(assert
 (let (($x2069 (= cell_4_5 9)))
 (let (($x2774 (= cell_4_5 8)))
 (let (($x8011 (= cell_4_5 7)))
 (let (($x7783 (= cell_4_5 6)))
 (let (($x1110 (= cell_4_5 5)))
 (let (($x2321 (= cell_4_5 4)))
 (let (($x2101 (= cell_4_5 3)))
 (let (($x3713 (= cell_4_5 2)))
 (let (($x2892 (= cell_4_5 1)))
 (or $x2892 $x3713 $x2101 $x2321 $x1110 $x7783 $x8011 $x2774 $x2069)))))))))))
(assert
 (let (($x2420 (= cell_5_5 9)))
 (let (($x254 (= cell_5_5 8)))
 (let (($x1142 (= cell_5_5 7)))
 (let (($x990 (= cell_5_5 6)))
 (let (($x1955 (= cell_5_5 5)))
 (let (($x345 (= cell_5_5 4)))
 (let (($x1570 (= cell_5_5 3)))
 (let (($x3818 (= cell_5_5 2)))
 (let (($x2439 (= cell_5_5 1)))
 (or $x2439 $x3818 $x1570 $x345 $x1955 $x990 $x1142 $x254 $x2420)))))))))))
(assert
 (let (($x313 (= cell_6_5 9)))
 (let (($x2810 (= cell_6_5 8)))
 (let (($x1388 (= cell_6_5 7)))
 (let (($x1535 (= cell_6_5 6)))
 (let (($x1566 (= cell_6_5 5)))
 (let (($x299 (= cell_6_5 4)))
 (let (($x89 (= cell_6_5 3)))
 (let (($x462 (= cell_6_5 2)))
 (let (($x3297 (= cell_6_5 1)))
 (or $x3297 $x462 $x89 $x299 $x1566 $x1535 $x1388 $x2810 $x313)))))))))))
(assert
 (let (($x1421 (= cell_7_5 9)))
 (let (($x694 (= cell_7_5 8)))
 (let (($x513 (= cell_7_5 7)))
 (let (($x1484 (= cell_7_5 6)))
 (let (($x3664 (= cell_7_5 5)))
 (let (($x1143 (= cell_7_5 4)))
 (let (($x866 (= cell_7_5 3)))
 (let (($x1754 (= cell_7_5 2)))
 (let (($x2201 (= cell_7_5 1)))
 (or $x2201 $x1754 $x866 $x1143 $x3664 $x1484 $x513 $x694 $x1421)))))))))))
(assert
 (let (($x3114 (= cell_8_5 2)))
 (or (= cell_8_5 1) $x3114 (= cell_8_5 3) (= cell_8_5 4) (= cell_8_5 5) (= cell_8_5 6) (= cell_8_5 7) (= cell_8_5 8) (= cell_8_5 9))))
(assert
 (let (($x508 (= cell_9_5 1)))
 (or $x508 (= cell_9_5 2) (= cell_9_5 3) (= cell_9_5 4) (= cell_9_5 5) (= cell_9_5 6) (= cell_9_5 7) (= cell_9_5 8) (= cell_9_5 9))))
(assert
 (let (($x2637 (= cell_1_6 9)))
 (let (($x2947 (= cell_1_6 8)))
 (let (($x1833 (= cell_1_6 7)))
 (let (($x205 (= cell_1_6 6)))
 (let (($x6981 (= cell_1_6 5)))
 (let (($x364 (= cell_1_6 4)))
 (let (($x655 (= cell_1_6 3)))
 (let (($x617 (= cell_1_6 2)))
 (let (($x1704 (= cell_1_6 1)))
 (or $x1704 $x617 $x655 $x364 $x6981 $x205 $x1833 $x2947 $x2637)))))))))))
(assert
 (let (($x1914 (= cell_2_6 2)))
 (or (= cell_2_6 1) $x1914 (= cell_2_6 3) (= cell_2_6 4) (= cell_2_6 5) (= cell_2_6 6) (= cell_2_6 7) (= cell_2_6 8) (= cell_2_6 9))))
(assert
 (let (($x1800 (= cell_3_6 9)))
 (let (($x909 (= cell_3_6 8)))
 (let (($x1676 (= cell_3_6 7)))
 (let (($x1267 (= cell_3_6 6)))
 (let (($x1395 (= cell_3_6 5)))
 (let (($x3550 (= cell_3_6 4)))
 (let (($x1366 (= cell_3_6 3)))
 (let (($x7853 (= cell_3_6 2)))
 (let (($x586 (= cell_3_6 1)))
 (or $x586 $x7853 $x1366 $x3550 $x1395 $x1267 $x1676 $x909 $x1800)))))))))))
(assert
 (let (($x251 (= cell_4_6 9)))
 (let (($x339 (= cell_4_6 8)))
 (let (($x2821 (= cell_4_6 7)))
 (let (($x3445 (= cell_4_6 6)))
 (let (($x2446 (= cell_4_6 5)))
 (let (($x610 (= cell_4_6 4)))
 (let (($x1000 (= cell_4_6 3)))
 (let (($x2798 (= cell_4_6 2)))
 (let (($x1392 (= cell_4_6 1)))
 (or $x1392 $x2798 $x1000 $x610 $x2446 $x3445 $x2821 $x339 $x251)))))))))))
(assert
 (let (($x2322 (= cell_5_6 9)))
 (let (($x3469 (= cell_5_6 8)))
 (let (($x487 (= cell_5_6 7)))
 (let (($x2425 (= cell_5_6 6)))
 (let (($x21 (= cell_5_6 5)))
 (let (($x1211 (= cell_5_6 4)))
 (let (($x667 (= cell_5_6 3)))
 (let (($x457 (= cell_5_6 2)))
 (let (($x2876 (= cell_5_6 1)))
 (or $x2876 $x457 $x667 $x1211 $x21 $x2425 $x487 $x3469 $x2322)))))))))))
(assert
 (let (($x3172 (= cell_6_6 1)))
 (or $x3172 (= cell_6_6 2) (= cell_6_6 3) (= cell_6_6 4) (= cell_6_6 5) (= cell_6_6 6) (= cell_6_6 7) (= cell_6_6 8) (= cell_6_6 9))))
(assert
 (let (($x3811 (= cell_7_6 9)))
 (let (($x1075 (= cell_7_6 8)))
 (let (($x3987 (= cell_7_6 7)))
 (let (($x224 (= cell_7_6 6)))
 (let (($x2544 (= cell_7_6 5)))
 (let (($x2514 (= cell_7_6 4)))
 (let (($x4230 (= cell_7_6 3)))
 (let (($x3294 (= cell_7_6 2)))
 (let (($x1620 (= cell_7_6 1)))
 (or $x1620 $x3294 $x4230 $x2514 $x2544 $x224 $x3987 $x1075 $x3811)))))))))))
(assert
 (let (($x2938 (= cell_8_6 9)))
 (let (($x2096 (= cell_8_6 8)))
 (let (($x4043 (= cell_8_6 7)))
 (let (($x1045 (= cell_8_6 6)))
 (let (($x1335 (= cell_8_6 5)))
 (let (($x3870 (= cell_8_6 4)))
 (let (($x323 (= cell_8_6 3)))
 (let (($x7872 (= cell_8_6 2)))
 (let (($x2358 (= cell_8_6 1)))
 (or $x2358 $x7872 $x323 $x3870 $x1335 $x1045 $x4043 $x2096 $x2938)))))))))))
(assert
 (let (($x202 (= cell_9_6 2)))
 (let (($x1847 (= cell_9_6 1)))
 (or $x1847 $x202 (= cell_9_6 3) (= cell_9_6 4) (= cell_9_6 5) (= cell_9_6 6) (= cell_9_6 7) (= cell_9_6 8) (= cell_9_6 9)))))
(assert
 (let (($x1822 (= cell_1_7 9)))
 (let (($x6868 (= cell_1_7 8)))
 (let (($x1760 (= cell_1_7 7)))
 (let (($x2143 (= cell_1_7 6)))
 (let (($x2481 (= cell_1_7 5)))
 (let (($x3645 (= cell_1_7 4)))
 (let (($x3915 (= cell_1_7 3)))
 (let (($x873 (= cell_1_7 2)))
 (let (($x2308 (= cell_1_7 1)))
 (or $x2308 $x873 $x3915 $x3645 $x2481 $x2143 $x1760 $x6868 $x1822)))))))))))
(assert
 (let (($x1117 (= cell_2_7 9)))
 (let (($x3682 (= cell_2_7 8)))
 (let (($x88 (= cell_2_7 7)))
 (let (($x2652 (= cell_2_7 6)))
 (let (($x1239 (= cell_2_7 5)))
 (let (($x4050 (= cell_2_7 4)))
 (let (($x702 (= cell_2_7 3)))
 (let (($x1129 (= cell_2_7 2)))
 (let (($x968 (= cell_2_7 1)))
 (or $x968 $x1129 $x702 $x4050 $x1239 $x2652 $x88 $x3682 $x1117)))))))))))
(assert
 (let (($x735 (= cell_3_7 9)))
 (let (($x1354 (= cell_3_7 8)))
 (let (($x1774 (= cell_3_7 7)))
 (let (($x882 (= cell_3_7 6)))
 (let (($x1171 (= cell_3_7 5)))
 (let (($x3007 (= cell_3_7 4)))
 (let (($x3375 (= cell_3_7 3)))
 (let (($x654 (= cell_3_7 2)))
 (let (($x2063 (= cell_3_7 1)))
 (or $x2063 $x654 $x3375 $x3007 $x1171 $x882 $x1774 $x1354 $x735)))))))))))
(assert
 (let (($x2475 (= cell_4_7 1)))
 (or $x2475 (= cell_4_7 2) (= cell_4_7 3) (= cell_4_7 4) (= cell_4_7 5) (= cell_4_7 6) (= cell_4_7 7) (= cell_4_7 8) (= cell_4_7 9))))
(assert
 (let (($x3852 (= cell_5_7 9)))
 (let (($x3794 (= cell_5_7 8)))
 (let (($x274 (= cell_5_7 7)))
 (let (($x310 (= cell_5_7 6)))
 (let (($x542 (= cell_5_7 5)))
 (let (($x2041 (= cell_5_7 4)))
 (let (($x708 (= cell_5_7 3)))
 (let (($x417 (= cell_5_7 2)))
 (let (($x1639 (= cell_5_7 1)))
 (or $x1639 $x417 $x708 $x2041 $x542 $x310 $x274 $x3794 $x3852)))))))))))
(assert
 (let (($x1503 (= cell_6_7 9)))
 (let (($x201 (= cell_6_7 8)))
 (let (($x3766 (= cell_6_7 7)))
 (let (($x261 (= cell_6_7 6)))
 (let (($x1196 (= cell_6_7 5)))
 (let (($x418 (= cell_6_7 4)))
 (let (($x1414 (= cell_6_7 3)))
 (let (($x4003 (= cell_6_7 2)))
 (let (($x1585 (= cell_6_7 1)))
 (or $x1585 $x4003 $x1414 $x418 $x1196 $x261 $x3766 $x201 $x1503)))))))))))
(assert
 (let (($x1021 (= cell_7_7 2)))
 (or (= cell_7_7 1) $x1021 (= cell_7_7 3) (= cell_7_7 4) (= cell_7_7 5) (= cell_7_7 6) (= cell_7_7 7) (= cell_7_7 8) (= cell_7_7 9))))
(assert
 (let (($x169 (= cell_8_7 9)))
 (let (($x1641 (= cell_8_7 8)))
 (let (($x6759 (= cell_8_7 7)))
 (let (($x2776 (= cell_8_7 6)))
 (let (($x1004 (= cell_8_7 5)))
 (let (($x1203 (= cell_8_7 4)))
 (let (($x1544 (= cell_8_7 3)))
 (let (($x6828 (= cell_8_7 2)))
 (let (($x2602 (= cell_8_7 1)))
 (or $x2602 $x6828 $x1544 $x1203 $x1004 $x2776 $x6759 $x1641 $x169)))))))))))
(assert
 (let (($x2279 (= cell_9_7 2)))
 (let (($x7808 (= cell_9_7 1)))
 (or $x7808 $x2279 (= cell_9_7 3) (= cell_9_7 4) (= cell_9_7 5) (= cell_9_7 6) (= cell_9_7 7) (= cell_9_7 8) (= cell_9_7 9)))))
(assert
 (let (($x722 (= cell_1_8 9)))
 (let (($x622 (= cell_1_8 8)))
 (let (($x1359 (= cell_1_8 7)))
 (let (($x3047 (= cell_1_8 6)))
 (let (($x1515 (= cell_1_8 5)))
 (let (($x3730 (= cell_1_8 4)))
 (let (($x2082 (= cell_1_8 3)))
 (let (($x3663 (= cell_1_8 2)))
 (let (($x158 (= cell_1_8 1)))
 (or $x158 $x3663 $x2082 $x3730 $x1515 $x3047 $x1359 $x622 $x722)))))))))))
(assert
 (let (($x3117 (= cell_2_8 9)))
 (let (($x1271 (= cell_2_8 8)))
 (let (($x3743 (= cell_2_8 7)))
 (let (($x3789 (= cell_2_8 6)))
 (let (($x4162 (= cell_2_8 5)))
 (let (($x3750 (= cell_2_8 4)))
 (let (($x2614 (= cell_2_8 3)))
 (let (($x2234 (= cell_2_8 2)))
 (let (($x2372 (= cell_2_8 1)))
 (or $x2372 $x2234 $x2614 $x3750 $x4162 $x3789 $x3743 $x1271 $x3117)))))))))))
(assert
 (let (($x1468 (= cell_3_8 9)))
 (let (($x661 (= cell_3_8 8)))
 (let (($x2416 (= cell_3_8 7)))
 (let (($x2021 (= cell_3_8 6)))
 (let (($x988 (= cell_3_8 5)))
 (let (($x3465 (= cell_3_8 4)))
 (let (($x1166 (= cell_3_8 3)))
 (let (($x3530 (= cell_3_8 2)))
 (let (($x3173 (= cell_3_8 1)))
 (or $x3173 $x3530 $x1166 $x3465 $x988 $x2021 $x2416 $x661 $x1468)))))))))))
(assert
 (let (($x3190 (= cell_4_8 9)))
 (let (($x1461 (= cell_4_8 8)))
 (let (($x2002 (= cell_4_8 7)))
 (let (($x3615 (= cell_4_8 6)))
 (let (($x1578 (= cell_4_8 5)))
 (let (($x1138 (= cell_4_8 4)))
 (let (($x1654 (= cell_4_8 3)))
 (let (($x964 (= cell_4_8 2)))
 (let (($x2766 (= cell_4_8 1)))
 (or $x2766 $x964 $x1654 $x1138 $x1578 $x3615 $x2002 $x1461 $x3190)))))))))))
(assert
 (let (($x1180 (= cell_5_8 2)))
 (or (= cell_5_8 1) $x1180 (= cell_5_8 3) (= cell_5_8 4) (= cell_5_8 5) (= cell_5_8 6) (= cell_5_8 7) (= cell_5_8 8) (= cell_5_8 9))))
(assert
 (let (($x1478 (= cell_6_8 9)))
 (let (($x3499 (= cell_6_8 8)))
 (let (($x2606 (= cell_6_8 7)))
 (let (($x782 (= cell_6_8 6)))
 (let (($x3179 (= cell_6_8 5)))
 (let (($x527 (= cell_6_8 4)))
 (let (($x806 (= cell_6_8 3)))
 (let (($x2864 (= cell_6_8 2)))
 (let (($x2132 (= cell_6_8 1)))
 (or $x2132 $x2864 $x806 $x527 $x3179 $x782 $x2606 $x3499 $x1478)))))))))))
(assert
 (let (($x3941 (= cell_7_8 9)))
 (let (($x1105 (= cell_7_8 8)))
 (let (($x2996 (= cell_7_8 7)))
 (let (($x2888 (= cell_7_8 6)))
 (let (($x32 (= cell_7_8 5)))
 (let (($x3037 (= cell_7_8 4)))
 (let (($x2149 (= cell_7_8 3)))
 (let (($x6967 (= cell_7_8 2)))
 (let (($x841 (= cell_7_8 1)))
 (or $x841 $x6967 $x2149 $x3037 $x32 $x2888 $x2996 $x1105 $x3941)))))))))))
(assert
 (let (($x7649 (= cell_8_8 1)))
 (or $x7649 (= cell_8_8 2) (= cell_8_8 3) (= cell_8_8 4) (= cell_8_8 5) (= cell_8_8 6) (= cell_8_8 7) (= cell_8_8 8) (= cell_8_8 9))))
(assert
 (let (($x2231 (= cell_9_8 2)))
 (let (($x1386 (= cell_9_8 1)))
 (or $x1386 $x2231 (= cell_9_8 3) (= cell_9_8 4) (= cell_9_8 5) (= cell_9_8 6) (= cell_9_8 7) (= cell_9_8 8) (= cell_9_8 9)))))
(assert
 (let (($x2471 (= cell_1_9 1)))
 (or $x2471 (= cell_1_9 2) (= cell_1_9 3) (= cell_1_9 4) (= cell_1_9 5) (= cell_1_9 6) (= cell_1_9 7) (= cell_1_9 8) (= cell_1_9 9))))
(assert
 (let (($x3627 (= cell_2_9 9)))
 (let (($x3541 (= cell_2_9 8)))
 (let (($x2056 (= cell_2_9 7)))
 (let (($x2289 (= cell_2_9 6)))
 (let (($x1061 (= cell_2_9 5)))
 (let (($x3902 (= cell_2_9 4)))
 (let (($x1848 (= cell_2_9 3)))
 (let (($x2626 (= cell_2_9 2)))
 (let (($x4134 (= cell_2_9 1)))
 (or $x4134 $x2626 $x1848 $x3902 $x1061 $x2289 $x2056 $x3541 $x3627)))))))))))
(assert
 (let (($x1587 (= cell_3_9 2)))
 (or (= cell_3_9 1) $x1587 (= cell_3_9 3) (= cell_3_9 4) (= cell_3_9 5) (= cell_3_9 6) (= cell_3_9 7) (= cell_3_9 8) (= cell_3_9 9))))
(assert
 (let (($x948 (= cell_4_9 9)))
 (let (($x1301 (= cell_4_9 8)))
 (let (($x1940 (= cell_4_9 7)))
 (let (($x1682 (= cell_4_9 6)))
 (let (($x1901 (= cell_4_9 5)))
 (let (($x1100 (= cell_4_9 4)))
 (let (($x629 (= cell_4_9 3)))
 (let (($x869 (= cell_4_9 2)))
 (let (($x3926 (= cell_4_9 1)))
 (or $x3926 $x869 $x629 $x1100 $x1901 $x1682 $x1940 $x1301 $x948)))))))))))
(assert
 (let (($x1728 (= cell_5_9 9)))
 (let (($x822 (= cell_5_9 8)))
 (let (($x2195 (= cell_5_9 7)))
 (let (($x1785 (= cell_5_9 6)))
 (let (($x3089 (= cell_5_9 5)))
 (let (($x1193 (= cell_5_9 4)))
 (let (($x3427 (= cell_5_9 3)))
 (let (($x2937 (= cell_5_9 2)))
 (let (($x1791 (= cell_5_9 1)))
 (or $x1791 $x2937 $x3427 $x1193 $x3089 $x1785 $x2195 $x822 $x1728)))))))))))
(assert
 (let (($x1235 (= cell_6_9 2)))
 (let (($x3342 (= cell_6_9 1)))
 (or $x3342 $x1235 (= cell_6_9 3) (= cell_6_9 4) (= cell_6_9 5) (= cell_6_9 6) (= cell_6_9 7) (= cell_6_9 8) (= cell_6_9 9)))))
(assert
 (let (($x1182 (= cell_7_9 9)))
 (let (($x434 (= cell_7_9 8)))
 (let (($x3161 (= cell_7_9 7)))
 (let (($x1326 (= cell_7_9 6)))
 (let (($x1361 (= cell_7_9 5)))
 (let (($x3501 (= cell_7_9 4)))
 (let (($x3290 (= cell_7_9 3)))
 (let (($x521 (= cell_7_9 2)))
 (let (($x6880 (= cell_7_9 1)))
 (or $x6880 $x521 $x3290 $x3501 $x1361 $x1326 $x3161 $x434 $x1182)))))))))))
(assert
 (let (($x2376 (= cell_8_9 2)))
 (let (($x3006 (= cell_8_9 1)))
 (or $x3006 $x2376 (= cell_8_9 3) (= cell_8_9 4) (= cell_8_9 5) (= cell_8_9 6) (= cell_8_9 7) (= cell_8_9 8) (= cell_8_9 9)))))
(assert
 (let (($x10 (= cell_9_9 2)))
 (let (($x2147 (= cell_9_9 1)))
 (or $x2147 $x10 (= cell_9_9 3) (= cell_9_9 4) (= cell_9_9 5) (= cell_9_9 6) (= cell_9_9 7) (= cell_9_9 8) (= cell_9_9 9)))))
(assert
 (and (distinct cell_1_1 cell_1_2 cell_1_3 cell_1_4 cell_1_5 cell_1_6 cell_1_7 cell_1_8 cell_1_9) true))
(assert
 (and (distinct cell_2_1 cell_2_2 cell_2_3 cell_2_4 cell_2_5 cell_2_6 cell_2_7 cell_2_8 cell_2_9) true))
(assert
 (and (distinct cell_3_1 cell_3_2 cell_3_3 cell_3_4 cell_3_5 cell_3_6 cell_3_7 cell_3_8 cell_3_9) true))
(assert
 (and (distinct cell_4_1 cell_4_2 cell_4_3 cell_4_4 cell_4_5 cell_4_6 cell_4_7 cell_4_8 cell_4_9) true))
(assert
 (and (distinct cell_5_1 cell_5_2 cell_5_3 cell_5_4 cell_5_5 cell_5_6 cell_5_7 cell_5_8 cell_5_9) true))
(assert
 (and (distinct cell_6_1 cell_6_2 cell_6_3 cell_6_4 cell_6_5 cell_6_6 cell_6_7 cell_6_8 cell_6_9) true))
(assert
 (and (distinct cell_7_1 cell_7_2 cell_7_3 cell_7_4 cell_7_5 cell_7_6 cell_7_7 cell_7_8 cell_7_9) true))
(assert
 (and (distinct cell_8_1 cell_8_2 cell_8_3 cell_8_4 cell_8_5 cell_8_6 cell_8_7 cell_8_8 cell_8_9) true))
(assert
 (and (distinct cell_9_1 cell_9_2 cell_9_3 cell_9_4 cell_9_5 cell_9_6 cell_9_7 cell_9_8 cell_9_9) true))
(assert
 (and (distinct cell_1_1 cell_2_1 cell_3_1 cell_4_1 cell_5_1 cell_6_1 cell_7_1 cell_8_1 cell_9_1) true))
(assert
 (and (distinct cell_1_2 cell_2_2 cell_3_2 cell_4_2 cell_5_2 cell_6_2 cell_7_2 cell_8_2 cell_9_2) true))
(assert
 (and (distinct cell_1_3 cell_2_3 cell_3_3 cell_4_3 cell_5_3 cell_6_3 cell_7_3 cell_8_3 cell_9_3) true))
(assert
 (and (distinct cell_1_4 cell_2_4 cell_3_4 cell_4_4 cell_5_4 cell_6_4 cell_7_4 cell_8_4 cell_9_4) true))
(assert
 (and (distinct cell_1_5 cell_2_5 cell_3_5 cell_4_5 cell_5_5 cell_6_5 cell_7_5 cell_8_5 cell_9_5) true))
(assert
 (and (distinct cell_1_6 cell_2_6 cell_3_6 cell_4_6 cell_5_6 cell_6_6 cell_7_6 cell_8_6 cell_9_6) true))
(assert
 (and (distinct cell_1_7 cell_2_7 cell_3_7 cell_4_7 cell_5_7 cell_6_7 cell_7_7 cell_8_7 cell_9_7) true))
(assert
 (and (distinct cell_1_8 cell_2_8 cell_3_8 cell_4_8 cell_5_8 cell_6_8 cell_7_8 cell_8_8 cell_9_8) true))
(assert
 (and (distinct cell_1_9 cell_2_9 cell_3_9 cell_4_9 cell_5_9 cell_6_9 cell_7_9 cell_8_9 cell_9_9) true))
(assert
 (and (distinct cell_1_1 cell_1_2 cell_1_3 cell_2_1 cell_2_2 cell_2_3 cell_3_1 cell_3_2 cell_3_3) true))
(assert
 (and (distinct cell_1_4 cell_1_5 cell_1_6 cell_2_4 cell_2_5 cell_2_6 cell_3_4 cell_3_5 cell_3_6) true))
(assert
 (and (distinct cell_1_7 cell_1_8 cell_1_9 cell_2_7 cell_2_8 cell_2_9 cell_3_7 cell_3_8 cell_3_9) true))
(assert
 (and (distinct cell_4_1 cell_4_2 cell_4_3 cell_5_1 cell_5_2 cell_5_3 cell_6_1 cell_6_2 cell_6_3) true))
(assert
 (and (distinct cell_4_4 cell_4_5 cell_4_6 cell_5_4 cell_5_5 cell_5_6 cell_6_4 cell_6_5 cell_6_6) true))
(assert
 (and (distinct cell_4_7 cell_4_8 cell_4_9 cell_5_7 cell_5_8 cell_5_9 cell_6_7 cell_6_8 cell_6_9) true))
(assert
 (and (distinct cell_7_1 cell_7_2 cell_7_3 cell_8_1 cell_8_2 cell_8_3 cell_9_1 cell_9_2 cell_9_3) true))
(assert
 (and (distinct cell_7_4 cell_7_5 cell_7_6 cell_8_4 cell_8_5 cell_8_6 cell_9_4 cell_9_5 cell_9_6) true))
(assert
 (and (distinct cell_7_7 cell_7_8 cell_7_9 cell_8_7 cell_8_8 cell_8_9 cell_9_7 cell_9_8 cell_9_9) true))
(assert
 (let (($x2760 (and (distinct cell_5_9 cell_6_8 cell_7_7 cell_8_6) true)))
 (let (($x1591 (and (distinct cell_2_9 cell_3_8 cell_4_7 cell_5_6 cell_6_5 cell_7_4 cell_8_3 cell_9_2) true)))
 (let (($x3065 (and (distinct cell_1_8 cell_2_7 cell_3_6 cell_4_5 cell_5_4 cell_6_3 cell_7_2 cell_8_1) true)))
 (let (($x6820 (and (distinct cell_1_5 cell_2_4 cell_3_3 cell_4_2) true)))
 (let (($x7821 (and (distinct cell_5_1 cell_6_2 cell_7_3 cell_8_4) true)))
 (let (($x1931 (and (distinct cell_2_1 cell_3_2 cell_4_3 cell_5_4 cell_6_5 cell_7_6 cell_8_7 cell_9_8) true)))
 (let (($x65 (and (distinct cell_1_2 cell_2_3 cell_3_4 cell_4_5 cell_5_6 cell_6_7 cell_7_8 cell_8_9) true)))
 (let (($x2638 (and (distinct cell_1_5 cell_2_6 cell_3_7 cell_4_8) true)))
 (and $x2638 $x65 $x1931 $x7821 $x6820 $x3065 $x1591 $x2760))))))))))
(assert
 (= cell_1_2 3))
(check-sat)
